
Log started (V12.5.0.0) Sat Aug 18 17:27:43 2018


Problem 'simple.lp' read.
Read time = 0.05 sec. (0.00 ticks)
Tried aggregator 4 times.
MIP Presolve eliminated 32 rows and 16 columns.
MIP Presolve added 1 rows and 1 columns.
MIP Presolve modified 38 coefficients.
Aggregator did 5 substitutions.
Reduced MIP has 3 rows, 5 columns, and 8 nonzeros.
Reduced MIP has 4 binaries, 0 generals, 0 SOSs, and 0 indicators.
Presolve time = 0.03 sec. (0.09 ticks)
Found incumbent of value 2.000000 after 0.05 sec. (0.10 ticks)

Solution pool: 1 solution saved.

MIP - Integer optimal solution:  Objective =  2.0000000000e+00
Solution time =    0.08 sec.  Iterations = 0  Nodes = 0
Deterministic time = 0.10 ticks  (1.29 ticks/sec)

